
50
12768

515 415
388 288
945 845
544 444
629 529
652 552
439 339
740 640
1001 901
172 72
661 561
365 265
756 656
724 624
146 46
213 113
629 529
959 859
898 798
924 824
238 138
451 351
677 577
467 367
331 231
1023 923
736 636
499 399
577 477
800 700
860 760
880 780
435 335
1068 968
864 764
371 271
272 172
531 431
361 261
978 878
110 10
918 818
262 162
912 812
533 433
232 132
1086 986
519 419
1079 979
423 323
